TCS_Benchmarks/redos_fix/snort1_output_distinct_2912_2911_32_0.txt
([^]+)(\s*)
([^]+)(\.[gG][iI][fF]("|')\s+[oO][nN][lL][oO][aA][dD]\s*=)(\s*)